p cnf 317 426 
1 0
-19 0
-25 26 24 0
35 34 0
-72 26 71 0
77 0
-84 -83 0
96 0
-110 0
-84 -119 0
-129 128 0
165 0
170 0
-129 192 0
-144 -133 224 0
-20 26 234 0
-238 0
-130 26 244 0
-174 -133 263 0
284 0
289 0
-306 0
-2 1 0
-3 1 0
-5 1 0
-6 1 0
-7 1 0
-8 1 0
-10 1 0
-12 1 0
-13 1 0
-14 1 0
-15 1 0
-16 1 0
-17 1 0
-18 1 0
-19 1 0
-20 1 0
-21 1 0
-22 1 0
-28 1 0
-29 1 0
-30 1 0
-31 1 0
-33 1 0
-36 1 0
-37 1 0
-38 1 0
-39 1 0
-41 1 0
-43 1 0
-44 1 0
-45 1 0
-46 1 0
-47 1 0
-49 1 0
-50 1 0
-54 1 0
-55 1 0
-56 1 0
-57 1 0
-59 1 0
-60 1 0
-61 1 0
-62 1 0
-63 1 0
-65 1 0
-66 1 0
-67 1 0
-68 1 0
-69 1 0
-70 1 0
-73 1 0
-74 1 0
-75 1 0
-76 1 0
-77 1 0
-78 1 0
-79 1 0
-80 1 0
-82 1 0
-85 1 0
-86 1 0
-88 1 0
-89 1 0
-90 1 0
-72 1 0
-91 1 0
-92 1 0
-93 1 0
-94 1 0
-95 1 0
-96 1 0
-97 1 0
-98 1 0
-99 1 0
-100 1 0
-101 1 0
-103 1 0
-104 1 0
-105 1 0
-106 1 0
-108 1 0
-109 1 0
-110 1 0
-111 1 0
-112 1 0
-113 1 0
-114 1 0
-115 1 0
-117 1 0
-118 1 0
-121 1 0
-122 1 0
-124 1 0
-126 1 0
-127 1 0
-130 1 0
-133 1 0
-134 1 0
-135 1 0
-136 1 0
-139 1 0
-140 1 0
-141 1 0
-142 1 0
-143 1 0
-147 1 0
-148 1 0
-150 1 0
-151 1 0
-153 1 0
-154 1 0
-155 1 0
-156 1 0
-158 1 0
-159 1 0
-160 1 0
-161 1 0
-162 1 0
-163 1 0
-164 1 0
-165 1 0
-167 1 0
-168 1 0
-25 1 0
-169 1 0
-170 1 0
-171 1 0
-173 1 0
-174 1 0
-175 1 0
-177 1 0
-179 1 0
-180 1 0
-181 1 0
-182 1 0
-183 1 0
-184 1 0
-185 1 0
-187 1 0
-188 1 0
-189 1 0
-190 1 0
-35 1 0
-191 1 0
-194 1 0
-195 1 0
-196 1 0
-197 1 0
-199 1 0
-201 1 0
-202 1 0
-203 1 0
-204 1 0
-205 1 0
-206 1 0
-207 1 0
-208 1 0
-210 1 0
-211 1 0
-212 1 0
-214 1 0
-216 1 0
-217 1 0
-219 1 0
-220 1 0
-221 1 0
-223 1 0
-225 1 0
-227 1 0
-228 1 0
-230 1 0
-231 1 0
-232 1 0
-233 1 0
-236 1 0
-237 1 0
-238 1 0
-239 1 0
-240 1 0
-241 1 0
-242 1 0
-243 1 0
-245 1 0
-247 1 0
-248 1 0
-249 1 0
-250 1 0
-251 1 0
-252 1 0
-253 1 0
-254 1 0
-256 1 0
-257 1 0
-129 1 0
-258 1 0
-259 1 0
-260 1 0
-261 1 0
-262 1 0
-264 1 0
-265 1 0
-266 1 0
-267 1 0
-268 1 0
-269 1 0
-270 1 0
-272 1 0
-276 1 0
-277 1 0
-278 1 0
-279 1 0
-280 1 0
-281 1 0
-282 1 0
-283 1 0
-284 1 0
-285 1 0
-286 1 0
-84 1 0
-287 1 0
-288 1 0
-289 1 0
-291 1 0
-292 1 0
-294 1 0
-295 1 0
-297 1 0
-298 1 0
-299 1 0
-301 1 0
-302 1 0
-304 1 0
-305 1 0
-306 1 0
-308 1 0
-309 1 0
-313 1 0
-316 1 0
-26 -107 0
-26 -310 0
-107 -26 0
-107 -310 0
-310 -26 0
-310 -107 0
-1 26 107 310 0
-26 1 0
-107 1 0
-310 1 0
-4 309 0
-9 306 0
-11 34 0
-23 248 0
-24 25 0
-24 -26 0
-27 238 0
-32 133 0
-34 -35 0
-40 285 0
-42 34 0
-48 285 0
-51 107 0
-52 238 0
-52 107 0
-53 165 0
-58 238 0
-64 16 0
-71 72 0
-71 -26 0
-81 111 0
-83 84 0
-87 238 0
-102 107 0
-116 96 0
-116 255 0
-119 84 0
-120 133 0
-123 77 0
-125 2 0
-128 129 0
-131 107 0
-132 306 0
-137 232 0
-138 284 0
-144 301 0
-145 232 0
-146 -238 0
-149 77 0
-152 34 0
-157 158 0
-166 284 0
-172 232 0
-176 284 0
-178 170 0
-186 173 0
-192 129 0
-193 34 0
-198 149 0
-200 232 0
-209 45 0
-213 289 0
-215 158 0
-218 158 0
-222 179 0
-224 144 0
-224 133 0
-229 77 0
-234 20 0
-234 -26 0
-235 253 0
-244 130 0
-244 -26 0
-255 16 0
-263 174 0
-263 133 0
-271 285 0
-273 77 0
-274 238 0
-275 139 0
-290 110 0
-293 158 0
-296 107 0
-300 107 0
-303 34 0
-307 133 0
-311 197 0
-312 107 0
-314 203 0
-315 238 0
-317 99 0
-226 1 0
226 -1 0
-246 1 0
246 -1 0
-4 0
-6 0
-136 0
-10 0
-11 0
-14 0
-271 0
-276 0
-23 0
-152 0
-280 0
-281 0
-154 0
-282 0
-155 0
-28 0
-157 0
-158 0
-287 0
-162 0
-293 0
-294 0
-40 0
-173 0
-46 0
-303 0
-48 0
-179 0
-309 0
-186 0
-316 0
-190 0
-193 0
-66 0
-68 0
-70 0
-73 0
-74 0
-207 0
-208 0
-82 0
-83 0
-84 0
-213 0
-86 0
-215 0
-216 0
-88 0
-218 0
-90 0
-92 0
-220 0
-93 0
-222 0
-98 0
-228 0
-233 0
-106 0
-237 0
-109 0
-241 0
-245 0
-119 0
-248 0
-249 0
-121 0
-250 0
-251 0
-123 0
-127 0
-256 0
